22513
99,38,24,18,94,88,16,22,70,66,26,65,4,97,56,80,31,42,89,54,40,64,69,73,68,85,50,44,2,82,95,13,76,33,37,5,52,78,96,39,30,48,100,41,71,14,3,43,46,29,34,83,55,27,86,35,62,60,77,20,12,7,9,57,87,51,25,81,61,58,93,28,67,8,92,75,19,53,79,90,49,6,63,1,47,91,98,23,45,32,11,15,17,59,74,21,72,10,84,36,99
